   3   1   1
  0.100000000000E+02  0.612323399574E-15  0.000000000000E+00
  0.000000000000E+00  0.100000000000E+02  0.000000000000E+00
  0.612323399574E-15  0.612323399574E-15  0.100000000000E+02
  1
  0.100000000000E+01  0.000000000000E+00  0.586426801243E-32
 -0.308148791102E-32  0.100000000000E+01 -0.646168363165E-32
  0.000000000000E+00  0.000000000000E+00  0.100000000000E+01
  0.000000000000E+00  0.000000000000E+00  0.000000000000E+00
 11
  6   -0.0006119662   -0.0013508996    1.2246187518
  6    1.1905256228    0.0000503462    0.2886343200
  6    0.7367298549    0.0010989699   -1.0013769900
  6   -1.1872508536    0.0003134591    0.2847948579
  6   -0.7375039525    0.0014269699   -1.0019960200
  1    0.0005091205   -0.8870141930    1.8928790773
  1    0.0009030775    0.8824100887    1.8953322920
  1    2.2257699550   -0.0005057439    0.6265061263
  1    1.3508843968    0.0010530826   -1.9040793567
  1   -2.2281075631    0.0004915409    0.6145586857
  1   -1.3557478833    0.0020261684   -1.9010782292
