CPD B3LYP/6-31G                                                                 
PARAME
       868     15000     60000    120000      6916      3500         2    600000
    360000     40000        10      8000      2000    200000      2000         6
   1800000     16800      6000      8750       410    360000      2000      8999
        25      2000        15     30000         4     50000        10         8
        17     60000      6000     80000      1000      5810       851        20
    400000     16000       192        30       150       250
INF   
         2         1         4         0       120         0        57        10
        36         3      1757      3457         0         0         0        18
       500         0      1817        27         1         0         5        11
         1         0         0         7         1         0         0         6
         0         0         3         0         3         1         2         4
        14         2        10        90        70         0         0         0
         0         1         1         1         1         1         1       354
         0         0         6         0         0         1         1         0
         0         0         0         0         0         0         0         0
       112         0        74        25         0         0      6999         0
         1         0         0         0         0         0         0         1
         1         1         1         0         0         0         0         0
         0         0         0         1         0         0         0         0
         1         1         1         0         0         0         0         0
         0         1         0         0         0         0         0         0
        30         0         0         0         0         0       500         0
        11         0         0         0        56         0         0         0
         0         0         0         0        44        44         0         0
         2         0         5        18         1         0        55        55
         0         0         0         0         0         0         0         0
    363941         0         0         0         0         0         0         0
         0         2         8         4         0         0         1         0
         0         0         1         0         0         0         5         0
         0         0         1         1         0         0       681         0
         0         0         0         0         0         0         0         0
         0         0         2         0         0         0         0         0
         0  90000000  10000000         0       100         0         0         0
         0         0         0         0         0         0         0        11
         0         0         0         0         0         0         0         0
         0         0         0         0         0         0         0         0
         0         0         0         0         0         0         0         0
         0         0         0         0         0         0         0         0
         0         0         0         0         0         0         0         0
         0         0         0         0         0         0         0         0
         0         0         0         0         0         0         0         0
         0         0         0         0         0         0         0         0
         0         0         0         0         0         0         0         0
         0         0         0         0         0         0         0         0
         0         0         0         0         0         0         0         0
         0         0         0         0         0         0         0         0
         0         0         0         0         0         0         0         0
         0         0         0         0         0         0         0         0
         0         0         0         0         0         0         0         0
         0         0         0         0         0         0         0         0
         0         0         0         0         0         0         0         0
         0         0         0         0         0         0         0         0
         0         0         0         0         0         0         0         0
         0         0         0         0         0         0         0         0
         0         0         0         0         0         0         0         0
         0         0         0         0         0         0         0         0
         0         0         0         0         0         0         0         0
         0         0         0         0         0         0         0         0
         0         0         0         0         0         0         0         0
         0         0         0         0         0         0         0         0
         0         0         0         0         0         0         0         0
         0         0         0         0         0         0         0         0
         0         0         0         0         0         0         0         0
         0         0         0         0         0         0         0         0
         0         0         0         0         0         0         0         0
         0         0         0         0         0         0         0         0
         0         0         0         0         0         0         0         0
         0         0         0         0         0         0         0         0
         0         0         0         0
TOL   
         8         8       -20       -20       -20         0         6         9
        14         0        20        10        20         0         0        30
        60         0        20         0         0         0         4         4
         6         0         0         0         0         0         0         0
         0         0         0         0         0         0         0         0
         0         0         0         0         0         0         0         0
         0         0
PAR   
 3.1415926535898E+00 1.8897261339213E+00 1.7453292519943E-02 2.7211383400000E+01
 6.7483345941847E+03-1.9379721284014E+02-1.8377593954894E-01 0.0000000000000E+00
 3.1830988618379E-01-4.3428372009657E-11-1.9379721284014E+02 6.9314718055995E-01
 5.3447580156542E-12 0.0000000000000E+00 1.9270238754320E+02 1.0781806132942E+00
 1.6578612669557E+01 6.1123212481192E+01 0.0000000000000E+00 0.0000000000000E+00
 0.0000000000000E+00 0.0000000000000E+00 0.0000000000000E+00 0.0000000000000E+00
 0.0000000000000E+00-1.3815510557964E+01 1.6605387300000E-27 2.6424608160000E+07
 2.9979245800000E+08 1.0000000000000E+02 2.6254996300000E+03 5.2917720830000E-01
 5.7295779513082E+01 6.2831853071796E+00 5.0000000000000E-01 0.0000000000000E+00
 0.0000000000000E+00 1.0000000000000E+00 1.0000000000000E+00 1.7320508075689E+00
 5.7735026918963E-01 4.1117228237205E-01 0.0000000000000E+00 0.0000000000000E+00
-2.3025850929940E+00-2.1762986607786E+01 1.3815510557964E+01 0.0000000000000E+00
 0.0000000000000E+00 0.0000000000000E+00 0.0000000000000E+00 0.0000000000000E+00
 0.0000000000000E+00 0.0000000000000E+00 0.0000000000000E+00 0.0000000000000E+00
 0.0000000000000E+00 0.0000000000000E+00 0.0000000000000E+00 0.0000000000000E+00
 0.0000000000000E+00 0.0000000000000E+00 0.0000000000000E+00 0.0000000000000E+00
 0.0000000000000E+00 0.0000000000000E+00 0.0000000000000E+00 0.0000000000000E+00
 0.0000000000000E+00 0.0000000000000E+00 0.0000000000000E+00 0.0000000000000E+00
 0.0000000000000E+00 0.0000000000000E+00 0.0000000000000E+00 0.0000000000000E+00
 0.0000000000000E+00 0.0000000000000E+00 0.0000000000000E+00 0.0000000000000E+00
 0.0000000000000E+00 0.0000000000000E+00 0.0000000000000E+00 0.0000000000000E+00
 0.0000000000000E+00 0.0000000000000E+00 0.0000000000000E+00 0.0000000000000E+00
 0.0000000000000E+00 0.0000000000000E+00 0.0000000000000E+00 0.0000000000000E+00
 0.0000000000000E+00 0.0000000000000E+00 0.0000000000000E+00 0.0000000000000E+00
 0.0000000000000E+00 0.0000000000000E+00 0.0000000000000E+00 0.0000000000000E+00
 0.0000000000000E+00 0.0000000000000E+00 0.0000000000000E+00 0.0000000000000E+00
 0.0000000000000E+00 0.0000000000000E+00 0.0000000000000E+00 0.0000000000000E+00
 0.0000000000000E+00 0.0000000000000E+00 0.0000000000000E+00 0.0000000000000E+00
 0.0000000000000E+00 0.0000000000000E+00 0.0000000000000E+00 0.0000000000000E+00
 0.0000000000000E+00 0.0000000000000E+00 0.0000000000000E+00 0.0000000000000E+00
 0.0000000000000E+00 0.0000000000000E+00 0.0000000000000E+00 0.0000000000000E+00
 0.0000000000000E+00 0.0000000000000E+00 0.0000000000000E+00 0.0000000000000E+00
 0.0000000000000E+00 0.0000000000000E+00 0.0000000000000E+00 0.0000000000000E+00
 0.0000000000000E+00 0.0000000000000E+00 0.0000000000000E+00 0.0000000000000E+00
 0.0000000000000E+00 0.0000000000000E+00 0.0000000000000E+00 0.0000000000000E+00
 0.0000000000000E+00 0.0000000000000E+00 0.0000000000000E+00 0.0000000000000E+00
 0.0000000000000E+00 0.0000000000000E+00 0.0000000000000E+00 0.0000000000000E+00
 0.0000000000000E+00 0.0000000000000E+00 0.0000000000000E+00 0.0000000000000E+00
 0.0000000000000E+00 0.0000000000000E+00 0.0000000000000E+00 0.0000000000000E+00
 0.0000000000000E+00 0.0000000000000E+00 0.0000000000000E+00 0.0000000000000E+00
 0.0000000000000E+00 0.0000000000000E+00 0.0000000000000E+00 0.0000000000000E+00
 0.0000000000000E+00 0.0000000000000E+00 0.0000000000000E+00 0.0000000000000E+00
 0.0000000000000E+00 0.0000000000000E+00 0.0000000000000E+00 0.0000000000000E+00
 0.0000000000000E+00 0.0000000000000E+00 0.0000000000000E+00 0.0000000000000E+00
 0.0000000000000E+00 0.0000000000000E+00 0.0000000000000E+00 0.0000000000000E+00
 0.0000000000000E+00 0.0000000000000E+00 0.0000000000000E+00 0.0000000000000E+00
 0.0000000000000E+00 0.0000000000000E+00 0.0000000000000E+00 0.0000000000000E+00
 0.0000000000000E+00 0.0000000000000E+00 0.0000000000000E+00 0.0000000000000E+00
 0.0000000000000E+00 0.0000000000000E+00 0.0000000000000E+00 0.0000000000000E+00
 0.0000000000000E+00 0.0000000000000E+00 1.0000000000000E+00 0.0000000000000E+00
XYVGVE
 1.0000000000000E+00-3.0814879110200E-33 0.0000000000000E+00 0.0000000000000E+00
 1.0000000000000E+00 0.0000000000000E+00 5.8642680124300E-33-6.4616836316500E-33
 1.0000000000000E+00-1.0000000000000E+00 3.0814879110200E-33 0.0000000000000E+00
 0.0000000000000E+00-1.0000000000000E+00 0.0000000000000E+00-5.8642680124300E-33
 6.4616836316500E-33-1.0000000000000E+00 0.0000000000000E+00 0.0000000000000E+00
 0.0000000000000E+00 0.0000000000000E+00 0.0000000000000E+00 0.0000000000000E+00
 0.0000000000000E+00 0.0000000000000E+00 0.0000000000000E+00 0.0000000000000E+00
 0.0000000000000E+00 0.0000000000000E+00 0.0000000000000E+00 0.0000000000000E+00
 0.0000000000000E+00 0.0000000000000E+00 0.0000000000000E+00 0.0000000000000E+00
 0.0000000000000E+00 0.0000000000000E+00 0.0000000000000E+00 0.0000000000000E+00
 0.0000000000000E+00 0.0000000000000E+00 0.0000000000000E+00 0.0000000000000E+00
 0.0000000000000E+00 0.0000000000000E+00 0.0000000000000E+00 0.0000000000000E+00
 0.0000000000000E+00 0.0000000000000E+00 0.0000000000000E+00 0.0000000000000E+00
 0.0000000000000E+00 0.0000000000000E+00 0.0000000000000E+00 0.0000000000000E+00
 0.0000000000000E+00 0.0000000000000E+00 0.0000000000000E+00 0.0000000000000E+00
 0.0000000000000E+00 0.0000000000000E+00 0.0000000000000E+00 0.0000000000000E+00
 0.0000000000000E+00 0.0000000000000E+00 0.0000000000000E+00 0.0000000000000E+00
 0.0000000000000E+00 0.0000000000000E+00 0.0000000000000E+00 0.0000000000000E+00
 0.0000000000000E+00 0.0000000000000E+00 0.0000000000000E+00 0.0000000000000E+00
 0.0000000000000E+00 0.0000000000000E+00 0.0000000000000E+00 0.0000000000000E+00
 0.0000000000000E+00 0.0000000000000E+00 0.0000000000000E+00 0.0000000000000E+00
 0.0000000000000E+00 0.0000000000000E+00 0.0000000000000E+00 0.0000000000000E+00
 0.0000000000000E+00 0.0000000000000E+00 0.0000000000000E+00 0.0000000000000E+00
 0.0000000000000E+00 0.0000000000000E+00 0.0000000000000E+00 0.0000000000000E+00
 0.0000000000000E+00 0.0000000000000E+00 0.0000000000000E+00 0.0000000000000E+00
 0.0000000000000E+00 0.0000000000000E+00 0.0000000000000E+00 0.0000000000000E+00
 0.0000000000000E+00 0.0000000000000E+00 0.0000000000000E+00 0.0000000000000E+00
 0.0000000000000E+00 0.0000000000000E+00 0.0000000000000E+00 0.0000000000000E+00
 0.0000000000000E+00 0.0000000000000E+00 0.0000000000000E+00 0.0000000000000E+00
 0.0000000000000E+00 0.0000000000000E+00 0.0000000000000E+00 0.0000000000000E+00
 0.0000000000000E+00 0.0000000000000E+00 0.0000000000000E+00 0.0000000000000E+00
 0.0000000000000E+00 0.0000000000000E+00 0.0000000000000E+00 0.0000000000000E+00
 0.0000000000000E+00 0.0000000000000E+00 0.0000000000000E+00 0.0000000000000E+00
 0.0000000000000E+00 0.0000000000000E+00 0.0000000000000E+00 0.0000000000000E+00
 0.0000000000000E+00 0.0000000000000E+00 0.0000000000000E+00 0.0000000000000E+00
 0.0000000000000E+00 0.0000000000000E+00 0.0000000000000E+00 0.0000000000000E+00
 0.0000000000000E+00 0.0000000000000E+00 0.0000000000000E+00 0.0000000000000E+00
 0.0000000000000E+00 0.0000000000000E+00 0.0000000000000E+00 0.0000000000000E+00
 0.0000000000000E+00 0.0000000000000E+00 0.0000000000000E+00 0.0000000000000E+00
 0.0000000000000E+00 0.0000000000000E+00 0.0000000000000E+00 0.0000000000000E+00
 0.0000000000000E+00 0.0000000000000E+00 0.0000000000000E+00 0.0000000000000E+00
 0.0000000000000E+00 0.0000000000000E+00 0.0000000000000E+00 0.0000000000000E+00
 0.0000000000000E+00 0.0000000000000E+00 0.0000000000000E+00 0.0000000000000E+00
 0.0000000000000E+00 0.0000000000000E+00 0.0000000000000E+00 0.0000000000000E+00
 0.0000000000000E+00 0.0000000000000E+00 0.0000000000000E+00 0.0000000000000E+00
 0.0000000000000E+00 0.0000000000000E+00 0.0000000000000E+00 0.0000000000000E+00
 0.0000000000000E+00 0.0000000000000E+00 0.0000000000000E+00 0.0000000000000E+00
 0.0000000000000E+00 0.0000000000000E+00 0.0000000000000E+00 0.0000000000000E+00
 0.0000000000000E+00 0.0000000000000E+00 0.0000000000000E+00 0.0000000000000E+00
 0.0000000000000E+00 0.0000000000000E+00 0.0000000000000E+00 0.0000000000000E+00
 0.0000000000000E+00 0.0000000000000E+00 0.0000000000000E+00 0.0000000000000E+00
 0.0000000000000E+00 0.0000000000000E+00 0.0000000000000E+00 0.0000000000000E+00
 0.0000000000000E+00 0.0000000000000E+00 0.0000000000000E+00 0.0000000000000E+00
 0.0000000000000E+00 0.0000000000000E+00 0.0000000000000E+00 0.0000000000000E+00
 0.0000000000000E+00 0.0000000000000E+00 0.0000000000000E+00 0.0000000000000E+00
 0.0000000000000E+00 0.0000000000000E+00 0.0000000000000E+00 0.0000000000000E+00
 0.0000000000000E+00 0.0000000000000E+00 0.0000000000000E+00 0.0000000000000E+00
 0.0000000000000E+00 0.0000000000000E+00 0.0000000000000E+00 0.0000000000000E+00
 0.0000000000000E+00 0.0000000000000E+00 0.0000000000000E+00 0.0000000000000E+00
 0.0000000000000E+00 0.0000000000000E+00 0.0000000000000E+00 0.0000000000000E+00
 0.0000000000000E+00 0.0000000000000E+00 0.0000000000000E+00 0.0000000000000E+00
 0.0000000000000E+00 0.0000000000000E+00 0.0000000000000E+00 0.0000000000000E+00
 0.0000000000000E+00 0.0000000000000E+00 0.0000000000000E+00 0.0000000000000E+00
 0.0000000000000E+00 0.0000000000000E+00 0.0000000000000E+00 0.0000000000000E+00
 0.0000000000000E+00 0.0000000000000E+00 0.0000000000000E+00 0.0000000000000E+00
 0.0000000000000E+00 0.0000000000000E+00 0.0000000000000E+00 0.0000000000000E+00
 0.0000000000000E+00 0.0000000000000E+00 0.0000000000000E+00 0.0000000000000E+00
 0.0000000000000E+00 0.0000000000000E+00 0.0000000000000E+00 0.0000000000000E+00
 0.0000000000000E+00 0.0000000000000E+00 0.0000000000000E+00 0.0000000000000E+00
 0.0000000000000E+00 0.0000000000000E+00 0.0000000000000E+00 0.0000000000000E+00
 0.0000000000000E+00 0.0000000000000E+00 0.0000000000000E+00 0.0000000000000E+00
 0.0000000000000E+00 0.0000000000000E+00 0.0000000000000E+00 0.0000000000000E+00
 0.0000000000000E+00 0.0000000000000E+00 0.0000000000000E+00 0.0000000000000E+00
 0.0000000000000E+00 0.0000000000000E+00 0.0000000000000E+00 0.0000000000000E+00
 0.0000000000000E+00 0.0000000000000E+00 0.0000000000000E+00 0.0000000000000E+00
 0.0000000000000E+00 0.0000000000000E+00 0.0000000000000E+00 0.0000000000000E+00
 0.0000000000000E+00 0.0000000000000E+00 0.0000000000000E+00 0.0000000000000E+00
 0.0000000000000E+00 0.0000000000000E+00 0.0000000000000E+00 0.0000000000000E+00
 0.0000000000000E+00 0.0000000000000E+00 0.0000000000000E+00 0.0000000000000E+00
 0.0000000000000E+00 0.0000000000000E+00 0.0000000000000E+00 0.0000000000000E+00
 0.0000000000000E+00 0.0000000000000E+00 0.0000000000000E+00 0.0000000000000E+00
 0.0000000000000E+00 0.0000000000000E+00 0.0000000000000E+00 0.0000000000000E+00
 0.0000000000000E+00 0.0000000000000E+00 0.0000000000000E+00 0.0000000000000E+00
 0.0000000000000E+00 0.0000000000000E+00 0.0000000000000E+00 0.0000000000000E+00
 0.0000000000000E+00 0.0000000000000E+00 0.0000000000000E+00 0.0000000000000E+00
 0.0000000000000E+00 0.0000000000000E+00 0.0000000000000E+00 0.0000000000000E+00
 0.0000000000000E+00 0.0000000000000E+00 0.0000000000000E+00 0.0000000000000E+00
 0.0000000000000E+00 0.0000000000000E+00 0.0000000000000E+00 0.0000000000000E+00
 0.0000000000000E+00 0.0000000000000E+00 0.0000000000000E+00 0.0000000000000E+00
 0.0000000000000E+00 0.0000000000000E+00 0.0000000000000E+00 0.0000000000000E+00
 0.0000000000000E+00 0.0000000000000E+00 0.0000000000000E+00 0.0000000000000E+00
 0.0000000000000E+00 0.0000000000000E+00 0.0000000000000E+00 0.0000000000000E+00
 0.0000000000000E+00 0.0000000000000E+00 0.0000000000000E+00 0.0000000000000E+00
 0.0000000000000E+00 0.0000000000000E+00 0.0000000000000E+00 0.0000000000000E+00
 0.0000000000000E+00 0.0000000000000E+00 0.0000000000000E+00 0.0000000000000E+00
 0.0000000000000E+00 0.0000000000000E+00 0.0000000000000E+00 0.0000000000000E+00
 0.0000000000000E+00 0.0000000000000E+00 0.0000000000000E+00 0.0000000000000E+00
 0.0000000000000E+00 0.0000000000000E+00 0.0000000000000E+00 0.0000000000000E+00
 0.0000000000000E+00 0.0000000000000E+00 0.0000000000000E+00 0.0000000000000E+00
 0.0000000000000E+00 0.0000000000000E+00 0.0000000000000E+00 0.0000000000000E+00
 0.0000000000000E+00 0.0000000000000E+00 0.0000000000000E+00 0.0000000000000E+00
 0.0000000000000E+00 0.0000000000000E+00 0.0000000000000E+00 0.0000000000000E+00
 0.0000000000000E+00 0.0000000000000E+00 0.0000000000000E+00 0.0000000000000E+00
 0.0000000000000E+00 0.0000000000000E+00 0.0000000000000E+00 0.0000000000000E+00
 0.0000000000000E+00 0.0000000000000E+00 0.0000000000000E+00 0.0000000000000E+00
 0.0000000000000E+00 0.0000000000000E+00 0.0000000000000E+00 0.0000000000000E+00
 0.0000000000000E+00 0.0000000000000E+00 0.0000000000000E+00 0.0000000000000E+00
 0.0000000000000E+00 0.0000000000000E+00 0.0000000000000E+00 0.0000000000000E+00
 0.0000000000000E+00 0.0000000000000E+00 0.0000000000000E+00 0.0000000000000E+00
 0.0000000000000E+00 0.0000000000000E+00 0.0000000000000E+00 0.0000000000000E+00
 0.0000000000000E+00 0.0000000000000E+00 0.0000000000000E+00 0.0000000000000E+00
 0.0000000000000E+00 0.0000000000000E+00 0.0000000000000E+00 0.0000000000000E+00
 0.0000000000000E+00 0.0000000000000E+00 0.0000000000000E+00 0.0000000000000E+00
 0.0000000000000E+00 0.0000000000000E+00 0.0000000000000E+00 0.0000000000000E+00
 0.0000000000000E+00 0.0000000000000E+00 0.0000000000000E+00 0.0000000000000E+00
 0.0000000000000E+00 0.0000000000000E+00 0.0000000000000E+00 0.0000000000000E+00
 0.0000000000000E+00 0.0000000000000E+00 0.0000000000000E+00 0.0000000000000E+00
 0.0000000000000E+00 0.0000000000000E+00 0.0000000000000E+00 0.0000000000000E+00
 0.0000000000000E+00 0.0000000000000E+00 0.0000000000000E+00 0.0000000000000E+00
 0.0000000000000E+00 0.0000000000000E+00 0.0000000000000E+00 0.0000000000000E+00
 0.0000000000000E+00 0.0000000000000E+00 0.0000000000000E+00 0.0000000000000E+00
 0.0000000000000E+00 0.0000000000000E+00 0.0000000000000E+00 0.0000000000000E+00
 0.0000000000000E+00 0.0000000000000E+00 0.0000000000000E+00 0.0000000000000E+00
 0.0000000000000E+00 0.0000000000000E+00 0.0000000000000E+00 0.0000000000000E+00
 0.0000000000000E+00 0.0000000000000E+00 0.0000000000000E+00 0.0000000000000E+00
 0.0000000000000E+00 0.0000000000000E+00 0.0000000000000E+00 0.0000000000000E+00
 0.0000000000000E+00 0.0000000000000E+00 0.0000000000000E+00 0.0000000000000E+00
 0.0000000000000E+00 0.0000000000000E+00 0.0000000000000E+00 0.0000000000000E+00
 0.0000000000000E+00 0.0000000000000E+00 0.0000000000000E+00 0.0000000000000E+00
 0.0000000000000E+00 0.0000000000000E+00 0.0000000000000E+00 0.0000000000000E+00
 0.0000000000000E+00 0.0000000000000E+00 0.0000000000000E+00 0.0000000000000E+00
 0.0000000000000E+00 0.0000000000000E+00 0.0000000000000E+00 0.0000000000000E+00
 0.0000000000000E+00 0.0000000000000E+00 0.0000000000000E+00 0.0000000000000E+00
 0.0000000000000E+00 0.0000000000000E+00 0.0000000000000E+00 0.0000000000000E+00
 0.0000000000000E+00 0.0000000000000E+00 0.0000000000000E+00 0.0000000000000E+00
 0.0000000000000E+00 0.0000000000000E+00 0.0000000000000E+00 0.0000000000000E+00
 0.0000000000000E+00 0.0000000000000E+00 0.0000000000000E+00 0.0000000000000E+00
 0.0000000000000E+00 0.0000000000000E+00 0.0000000000000E+00 0.0000000000000E+00
 0.0000000000000E+00 0.0000000000000E+00 0.0000000000000E+00 0.0000000000000E+00
 0.0000000000000E+00 0.0000000000000E+00 0.0000000000000E+00 0.0000000000000E+00
 0.0000000000000E+00 0.0000000000000E+00 0.0000000000000E+00 0.0000000000000E+00
 0.0000000000000E+00 0.0000000000000E+00 0.0000000000000E+00 0.0000000000000E+00
 0.0000000000000E+00 0.0000000000000E+00 0.0000000000000E+00 0.0000000000000E+00
 0.0000000000000E+00 0.0000000000000E+00 0.0000000000000E+00 0.0000000000000E+00
 1.8897261339213E+01 0.0000000000000E+00 1.1571235305865E-15 1.1571235305865E-15
 1.8897261339213E+01 1.1571235305865E-15 0.0000000000000E+00 0.0000000000000E+00
 1.8897261339213E+01 1.0000000000000E+00 0.0000000000000E+00 0.0000000000000E+00
 0.0000000000000E+00 1.0000000000000E+00 0.0000000000000E+00 0.0000000000000E+00
 0.0000000000000E+00 1.0000000000000E+00
BASATO
 6.0000000000000E+00 6.0000000000000E+00 6.0000000000000E+00 6.0000000000000E+00
 6.0000000000000E+00 1.0000000000000E+00 1.0000000000000E+00 1.0000000000000E+00
 1.0000000000000E+00 1.0000000000000E+00 1.0000000000000E+00-1.1564485212165E-03
-2.5528302784238E-03 2.3141940593665E+00 2.2497673825080E+00 9.5140529883626E-05
 5.4543981765059E-01 1.3922176604445E+00 2.0767521404228E-03-1.8923282679104E+00
-2.2435789655682E+00 5.9235185318544E-04 5.3818428578002E-01-1.3936804929095E+00
 2.6965823123490E-03-1.8934980650791E+00 9.6209831416505E-04-1.6762139016712E+00
 3.5770230607266E+00 1.7065691527063E-03 1.6675134054522E+00 3.5816589646573E+00
 4.2060956520602E+00-9.5571746490126E-04 1.1839249999309E+00 2.5528015485394E+00
 1.9900377103977E-03-3.5981885214160E+00-4.2105130911777E+00 9.2887768462117E-04
 1.1613476091956E+00-2.5619922060804E+00 3.8289033772054E-03-3.5925172123480E+00
 2.0000000000000E+00 4.0000000000000E+00 0.0000000000000E+00 2.0000000000000E+00
 4.0000000000000E+00 0.0000000000000E+00 2.0000000000000E+00 4.0000000000000E+00
 0.0000000000000E+00 2.0000000000000E+00 4.0000000000000E+00 0.0000000000000E+00
 2.0000000000000E+00 4.0000000000000E+00 0.0000000000000E+00 1.0000000000000E+00
 0.0000000000000E+00 1.0000000000000E+00 0.0000000000000E+00 1.0000000000000E+00
 0.0000000000000E+00 1.0000000000000E+00 0.0000000000000E+00 1.0000000000000E+00
 0.0000000000000E+00 1.0000000000000E+00 0.0000000000000E+00 3.1639270000000E+00
 5.4424930000000E-01 1.6871440000000E-01 3.1639270000000E+00 5.4424930000000E-01
 1.6871440000000E-01 3.1639270000000E+00 5.4424930000000E-01 1.6871440000000E-01
 3.1639270000000E+00 5.4424930000000E-01 1.6871440000000E-01 3.1639270000000E+00
 5.4424930000000E-01 1.6871440000000E-01 6.4012170000000E-01 1.6127780000000E-01
 6.4012170000000E-01 1.6127780000000E-01 6.4012170000000E-01 1.6127780000000E-01
 6.4012170000000E-01 1.6127780000000E-01 6.4012170000000E-01 1.6127780000000E-01
 6.4012170000000E-01 1.6127780000000E-01-1.1564485212165E-03-2.5528302784238E-03
 2.3141940593665E+00-1.1564485212165E-03-2.5528302784238E-03 2.3141940593665E+00
-1.1564485212165E-03-2.5528302784238E-03 2.3141940593665E+00 2.2497673825080E+00
 9.5140529883626E-05 5.4543981765059E-01 2.2497673825080E+00 9.5140529883626E-05
 5.4543981765059E-01 2.2497673825080E+00 9.5140529883626E-05 5.4543981765059E-01
 1.3922176604445E+00 2.0767521404228E-03-1.8923282679104E+00 1.3922176604445E+00
 2.0767521404228E-03-1.8923282679104E+00 1.3922176604445E+00 2.0767521404228E-03
-1.8923282679104E+00-2.2435789655682E+00 5.9235185318544E-04 5.3818428578002E-01
-2.2435789655682E+00 5.9235185318544E-04 5.3818428578002E-01-2.2435789655682E+00
 5.9235185318544E-04 5.3818428578002E-01-1.3936804929095E+00 2.6965823123490E-03
-1.8934980650791E+00-1.3936804929095E+00 2.6965823123490E-03-1.8934980650791E+00
-1.3936804929095E+00 2.6965823123490E-03-1.8934980650791E+00 9.6209831416505E-04
-1.6762139016712E+00 3.5770230607266E+00 9.6209831416505E-04-1.6762139016712E+00
 3.5770230607266E+00 1.7065691527063E-03 1.6675134054522E+00 3.5816589646573E+00
 1.7065691527063E-03 1.6675134054522E+00 3.5816589646573E+00 4.2060956520602E+00
-9.5571746490126E-04 1.1839249999309E+00 4.2060956520602E+00-9.5571746490126E-04
 1.1839249999309E+00 2.5528015485394E+00 1.9900377103977E-03-3.5981885214160E+00
 2.5528015485394E+00 1.9900377103977E-03-3.5981885214160E+00-4.2105130911777E+00
 9.2887768462117E-04 1.1613476091956E+00-4.2105130911777E+00 9.2887768462117E-04
 1.1613476091956E+00-2.5619922060804E+00 3.8289033772054E-03-3.5925172123480E+00
-2.5619922060804E+00 3.8289033772054E-03-3.5925172123480E+00 3.0475249000000E+03
 4.5736951000000E+02 1.0394869000000E+02 2.9210155000000E+01 9.2866630000000E+00
 3.1639270000000E+00 7.8682724000000E+00 1.8812885000000E+00 5.4424930000000E-01
 1.6871440000000E-01 3.0475249000000E+03 4.5736951000000E+02 1.0394869000000E+02
 2.9210155000000E+01 9.2866630000000E+00 3.1639270000000E+00 7.8682724000000E+00
 1.8812885000000E+00 5.4424930000000E-01 1.6871440000000E-01 3.0475249000000E+03
 4.5736951000000E+02 1.0394869000000E+02 2.9210155000000E+01 9.2866630000000E+00
 3.1639270000000E+00 7.8682724000000E+00 1.8812885000000E+00 5.4424930000000E-01
 1.6871440000000E-01 3.0475249000000E+03 4.5736951000000E+02 1.0394869000000E+02
 2.9210155000000E+01 9.2866630000000E+00 3.1639270000000E+00 7.8682724000000E+00
 1.8812885000000E+00 5.4424930000000E-01 1.6871440000000E-01 3.0475249000000E+03
 4.5736951000000E+02 1.0394869000000E+02 2.9210155000000E+01 9.2866630000000E+00
 3.1639270000000E+00 7.8682724000000E+00 1.8812885000000E+00 5.4424930000000E-01
 1.6871440000000E-01 1.8731137000000E+01 2.8253937000000E+00 6.4012170000000E-01
 1.6127780000000E-01 1.8731137000000E+01 2.8253937000000E+00 6.4012170000000E-01
 1.6127780000000E-01 1.8731137000000E+01 2.8253937000000E+00 6.4012170000000E-01
 1.6127780000000E-01 1.8731137000000E+01 2.8253937000000E+00 6.4012170000000E-01
 1.6127780000000E-01 1.8731137000000E+01 2.8253937000000E+00 6.4012170000000E-01
 1.6127780000000E-01 1.8731137000000E+01 2.8253937000000E+00 6.4012170000000E-01
 1.6127780000000E-01 1.3044030576390E+00 2.4064136859285E+00 3.8847030777561E+00
 5.0567296255989E+00 4.3149169563065E+00 1.4898373559479E+00-9.7174923683424E-01
-4.4787853457303E-01 1.2558978353341E+00 4.5629990191438E-01 1.3044030576390E+00
 2.4064136859285E+00 3.8847030777561E+00 5.0567296255989E+00 4.3149169563065E+00
 1.4898373559479E+00-9.7174923683424E-01-4.4787853457303E-01 1.2558978353341E+00
 4.5629990191438E-01 1.3044030576390E+00 2.4064136859285E+00 3.8847030777561E+00
 5.0567296255989E+00 4.3149169563065E+00 1.4898373559479E+00-9.7174923683424E-01
-4.4787853457303E-01 1.2558978353341E+00 4.5629990191438E-01 1.3044030576390E+00
 2.4064136859285E+00 3.8847030777561E+00 5.0567296255989E+00 4.3149169563065E+00
 1.4898373559479E+00-9.7174923683424E-01-4.4787853457303E-01 1.2558978353341E+00
 4.5629990191438E-01 1.3044030576390E+00 2.4064136859285E+00 3.8847030777561E+00
 5.0567296255989E+00 4.3149169563065E+00 1.4898373559479E+00-9.7174923683424E-01
-4.4787853457303E-01 1.2558978353341E+00 4.5629990191438E-01 5.2273810162066E-01
 8.8666270281175E-01 1.0094343550140E+00 4.4113062019618E-01 5.2273810162066E-01
 8.8666270281175E-01 1.0094343550140E+00 4.4113062019618E-01 5.2273810162066E-01
 8.8666270281175E-01 1.0094343550140E+00 4.4113062019618E-01 5.2273810162066E-01
 8.8666270281175E-01 1.0094343550140E+00 4.4113062019618E-01 5.2273810162066E-01
 8.8666270281175E-01 1.0094343550140E+00 4.4113062019618E-01 5.2273810162066E-01
 8.8666270281175E-01 1.0094343550140E+00 4.4113062019618E-01 0.0000000000000E+00
 0.0000000000000E+00 0.0000000000000E+00 0.0000000000000E+00 0.0000000000000E+00
 0.0000000000000E+00 3.1521646109771E+00 2.4168789357272E+00 1.2061919906223E+00
 3.7484907800562E-01 0.0000000000000E+00 0.0000000000000E+00 0.0000000000000E+00
 0.0000000000000E+00 0.0000000000000E+00 0.0000000000000E+00 3.1521646109771E+00
 2.4168789357272E+00 1.2061919906223E+00 3.7484907800562E-01 0.0000000000000E+00
 0.0000000000000E+00 0.0000000000000E+00 0.0000000000000E+00 0.0000000000000E+00
 0.0000000000000E+00 3.1521646109771E+00 2.4168789357272E+00 1.2061919906223E+00
 3.7484907800562E-01 0.0000000000000E+00 0.0000000000000E+00 0.0000000000000E+00
 0.0000000000000E+00 0.0000000000000E+00 0.0000000000000E+00 3.1521646109771E+00
 2.4168789357272E+00 1.2061919906223E+00 3.7484907800562E-01 0.0000000000000E+00
 0.0000000000000E+00 0.0000000000000E+00 0.0000000000000E+00 0.0000000000000E+00
 0.0000000000000E+00 3.1521646109771E+00 2.4168789357272E+00 1.2061919906223E+00
 3.7484907800562E-01 0.0000000000000E+00 0.0000000000000E+00 0.0000000000000E+00