   3   1   1
  0.100000000000E+02  0.612323399574E-15  0.000000000000E+00
  0.000000000000E+00  0.100000000000E+02  0.000000000000E+00
  0.612323399574E-15  0.612323399574E-15  0.100000000000E+02
  1
  0.100000000000E+01  0.000000000000E+00  0.586426801243E-32
 -0.308148791102E-32  0.100000000000E+01 -0.646168363165E-32
  0.000000000000E+00  0.000000000000E+00  0.100000000000E+01
  0.000000000000E+00  0.000000000000E+00  0.000000000000E+00
 11
  6   -0.0005016484   -0.0013544935    1.2249978817
  6    1.1895099953    0.0000404579    0.2875671023
  6    0.7383304204    0.0010988695   -1.0022755640
  6   -1.1912535325    0.0003232370    0.2870414281
  6   -0.7376141901    0.0014276826   -1.0036505951
  1   -0.0010472135   -0.8868435815    1.8928045383
  1   -0.0007093540    0.8822533610    1.8952647702
  1    2.2247565858   -0.0004970100    0.6212709392
  1    1.3525369737    0.0010534942   -1.8998755681
  1   -2.2200571200    0.0004757195    0.6175560362
  1   -1.3494212140    0.0020185087   -1.8994222583
