CPD B3LYP/6-31G
EXTERNAL
CPHF
FMIXING
60
MAXCYCLE
500
TOLALPHA
4 4
ENDCPHF
END
   6   3
 0    0   6     2.000     1.000
       3047.52490         0.183470000E-02
       457.369510         0.140373000E-01
       103.948690         0.688426000E-01
       29.2101550         0.232184400
       9.28666300         0.467941300
       3.16392700         0.362312000
 0    1   3     4.000     1.000
       7.86827240        -0.119332400         0.689991000E-01
       1.88128850        -0.160854200         0.316424000
      0.544249300          1.14345640         0.744308300
 0    1   1     0.000     1.000
      0.168714400          1.00000000          1.00000000
   7   3
 0    0   6     2.000     1.000
       4173.51100         0.183480000E-02
       627.457900         0.139950000E-01
       142.902100         0.685870000E-01
       40.2343300         0.232241000
       12.8202100         0.469070000
       4.39043700         0.360455000
 0    1   3     5.000     1.000
       11.6263580        -0.114961000         0.675800000E-01
       2.71628000        -0.169118000         0.323907000
      0.772218000          1.14585200         0.740895000
 0    1   1     0.000     1.000
      0.212031300          1.00000000          1.00000000
   1   2
 0    0   3     1.000     1.000
       18.7311370         0.334946000E-01
       2.82539370         0.234726950
      0.640121700         0.813757330
 0    0   1     0.000     1.000
      0.161277800          1.00000000
99 0
END
SCFDIR
DFT
EXCHANGE
PBE
CORRELAT
PBE
XLGRID
END
SHRINK
1 1
LEVSHIFT
5 0
TOLINTEG
8 8 8 8 16
TOLDEE
10
FMIXING
30
MAXCYCLE
500
ENDSCF