   3   1   1
  0.100000000000E+02  0.612323399574E-15  0.000000000000E+00
  0.000000000000E+00  0.100000000000E+02  0.000000000000E+00
  0.612323399574E-15  0.612323399574E-15  0.100000000000E+02
  1
  0.100000000000E+01  0.000000000000E+00  0.586426801243E-32
 -0.308148791102E-32  0.100000000000E+01 -0.646168363165E-32
  0.000000000000E+00  0.000000000000E+00  0.100000000000E+01
  0.000000000000E+00  0.000000000000E+00  0.000000000000E+00
 11
  6   -0.0005312333   -0.0013477091    1.2248537967
  6    1.1888670947    0.0015762545    0.2873077321
  6    0.7377986882    0.0042014134   -1.0015191503
  6   -1.1890611177   -0.0012084832    0.2861632679
  6   -0.7367956974   -0.0016706676   -1.0022289929
  1    0.0001678094   -0.8870148222    1.8929523464
  1   -0.0019000427    0.8824145935    1.8954042078
  1    2.2266273902   -0.0064735426    0.6218780718
  1    1.3540997621    0.0000707106   -1.9021361987
  1   -2.2271003535    0.0064429241    0.6198427850
  1   -1.3521662725    0.0029972736   -1.9034731778
