   3   1   1
  0.100000000000E+02  0.612323399574E-15  0.000000000000E+00
  0.000000000000E+00  0.100000000000E+02  0.000000000000E+00
  0.612323399574E-15  0.612323399574E-15  0.100000000000E+02
  1
  0.100000000000E+01  0.000000000000E+00  0.586426801243E-32
 -0.308148791102E-32  0.100000000000E+01 -0.646168363165E-32
  0.000000000000E+00  0.000000000000E+00  0.100000000000E+01
  0.000000000000E+00  0.000000000000E+00  0.000000000000E+00
 11
  6   -0.0028481289    0.0009904214   -0.0045376624
  6    1.1866449770    0.0018843528   -0.0030002740
  6    0.7357147882    0.0024620203   -0.0019712339
  6   -1.1912701065    0.0022253072   -0.0029702227
  6   -0.7388712836    0.0028233450   -0.0017964858
  1   -0.0017388317   -0.8861933450   -0.8877510479
  1   -0.0013839269    0.8832253320    0.8813194868
  1    2.2259647421    0.0000711474   -0.0013482339
  1    1.3535164073    0.0013436290    0.0001884548
  1   -2.2277524361    0.0010793544   -0.0005086247
  1   -1.3527336232    0.0023296724    0.0010745242
